(set-info :smt-lib-version 2.6)
(set-logic QF_UFLRA)
(set-info :source |
MathSat group

|)
(set-info :category "random")
(set-info :status sat)
(declare-fun x0 () Real)
(declare-fun x1 () Real)
(declare-fun x2 () Real)
(declare-fun x3 () Real)
(declare-fun x4 () Real)
(declare-fun x5 () Real)
(declare-fun x6 () Real)
(declare-fun x7 () Real)
(declare-fun x8 () Real)
(declare-fun x9 () Real)
(declare-fun x10 () Real)
(declare-fun x11 () Real)
(declare-fun x12 () Real)
(declare-fun x13 () Real)
(declare-fun x14 () Real)
(declare-fun x15 () Real)
(declare-fun x16 () Real)
(declare-fun x17 () Real)
(declare-fun x18 () Real)
(declare-fun x19 () Real)
(declare-fun x20 () Real)
(declare-fun x21 () Real)
(declare-fun x22 () Real)
(declare-fun x23 () Real)
(declare-fun x24 () Real)
(declare-fun x25 () Real)
(declare-fun x26 () Real)
(declare-fun x27 () Real)
(declare-fun x28 () Real)
(declare-fun x29 () Real)
(declare-fun x30 () Real)
(declare-fun x31 () Real)
(declare-fun x32 () Real)
(declare-fun x33 () Real)
(declare-fun x34 () Real)
(declare-fun x35 () Real)
(declare-fun x36 () Real)
(declare-fun x37 () Real)
(declare-fun x38 () Real)
(declare-fun x39 () Real)
(declare-fun f0_1 (Real) Real)
(declare-fun f0_2 (Real Real) Real)
(declare-fun f0_3 (Real Real Real) Real)
(declare-fun f0_4 (Real Real Real Real) Real)
(declare-fun P0 () Bool)
(declare-fun P1 () Bool)
(declare-fun P2 () Bool)
(declare-fun P3 () Bool)
(declare-fun P4 () Bool)
(declare-fun P5 () Bool)
(declare-fun P6 () Bool)
(declare-fun P7 () Bool)
(declare-fun P8 () Bool)
(declare-fun P9 () Bool)
(declare-fun P10 () Bool)
(declare-fun P11 () Bool)
(declare-fun P12 () Bool)
(declare-fun P13 () Bool)
(declare-fun P14 () Bool)
(declare-fun P15 () Bool)
(declare-fun P16 () Bool)
(declare-fun P17 () Bool)
(declare-fun P18 () Bool)
(declare-fun P19 () Bool)
(declare-fun P20 () Bool)
(declare-fun P21 () Bool)
(declare-fun P22 () Bool)
(declare-fun P23 () Bool)
(declare-fun P24 () Bool)
(declare-fun P25 () Bool)
(declare-fun P26 () Bool)
(declare-fun P27 () Bool)
(declare-fun P28 () Bool)
(declare-fun P29 () Bool)
(declare-fun P30 () Bool)
(declare-fun P31 () Bool)
(declare-fun P32 () Bool)
(declare-fun P33 () Bool)
(declare-fun P34 () Bool)
(declare-fun P35 () Bool)
(declare-fun P36 () Bool)
(declare-fun P37 () Bool)
(declare-fun P38 () Bool)
(declare-fun P39 () Bool)
(assert (let ((?v_12 (* 24 x17)) (?v_107 (<= (- (+ (* 51 x37) (* 42 x25)) (* 23 x39)) 18)) (?v_37 (distinct (+ (- (* 29 x14) (* 47 x11)) (* 33 x9)) 37)) (?v_0 (* 32 x31)) (?v_30 (< (- (- (* 10 x23) (* 28 x34)) (* 34 x4)) 24)) (?v_77 (< (- (- (* 2 x34) (* 24 x7)) (* 44 x32)) 22)) (?v_2 (distinct (- (- (* 17 x28) (* 45 x21)) (* 15 x35)) 9)) (?v_95 (= (- (+ (* 2 x3) (* 57 x7)) (* 7 x5)) 48)) (?v_79 (<= (- (- (* 53 x9) (* 24 x31)) (* 41 x22)) 33)) (?v_54 (< (+ (- (* 4 x35) (* 54 x15)) (* 4 x11)) 8))) (let ((?v_35 (< (+ (- (* 41 x26) (* 2 x11)) ?v_12) 28)) (?v_100 (* 39 x29)) (?v_87 (<= (- (- (* 13 x16) (* 21 x17)) (* 22 x1)) 49))) (let ((?v_122 (< (+ (- (* 31 x23) ?v_100) (* 48 x14)) 43)) (?v_149 (distinct (- (+ (* 16 x14) (* 28 x17)) (* 4 x26)) 37)) (?v_186 (< (- (+ (* 47 x1) (* 6 x10)) (* 4 x27)) 56)) (?v_38 (f0_1 x22))) (let ((?v_129 (= ?v_38 x10)) (?v_92 (distinct (f0_2 x17 x11) x25)) (?v_3 (f0_1 x26))) (let ((?v_36 (= (f0_2 x14 x26) ?v_3)) (?v_6 (f0_1 x9))) (let ((?v_146 (= ?v_6 (f0_2 x26 x24))) (?v_162 (distinct (f0_2 x7 x34) (f0_2 x26 x35))) (?v_105 (distinct x6 ?v_38)) (?v_26 (distinct (f0_2 x26 x11) ?v_6)) (?v_49 (= (f0_1 x1) x13)) (?v_33 (distinct (f0_2 x33 x30) x8)) (?v_51 (= (f0_2 x31 x28) (f0_1 x14))) (?v_46 (= (f0_1 x7) (f0_2 x35 x9))) (?v_22 (= x27 x28)) (?v_198 (= (f0_1 x10) x8)) (?v_14 (distinct x36 ?v_3)) (?v_10 (f0_1 x27))) (let ((?v_32 (distinct ?v_10 x33)) (?v_50 (= ?v_38 (f0_1 x29))) (?v_4 (distinct (f0_2 x0 x22) x18)) (?v_18 (distinct (f0_2 x0 x3) (f0_1 x38))) (?v_21 (= x13 (f0_2 x36 x6))) (?v_102 (= x15 x0)) (?v_45 (distinct x6 (f0_2 x24 x17))) (?v_60 (= (f0_2 x38 x39) (f0_2 x23 x17))) (?v_24 (distinct x1 x11)) (?v_128 (= x17 (f0_2 x5 x27))) (?v_74 (distinct x28 (f0_2 x7 x10))) (?v_204 (= (f0_1 x36) ?v_38)) (?v_58 (= ?v_6 x37)) (?v_56 (distinct x23 x35)) (?v_119 (= (f0_2 x0 x8) x18)) (?v_47 (= (f0_2 x39 x13) x4)) (?v_62 (= x4 (f0_2 x39 x3))) (?v_164 (= x10 (f0_1 x39))) (?v_121 (distinct x11 (f0_2 x2 x16))) (?v_134 (distinct (f0_1 x19) x8)) (?v_111 (distinct (f0_1 x18) (f0_2 x35 x39))) (?v_40 (= (f0_2 x28 x19) (f0_1 x6))) (?v_20 (distinct (f0_1 x37) (f0_2 x25 x9))) (?v_13 (= (f0_1 x33) (f0_2 x30 x26))) (?v_63 (distinct x32 x27)) (?v_55 (distinct ?v_10 (f0_1 x8))) (?v_144 (not P1))) (let ((?v_155 (not ?v_40)) (?v_25 (not ?v_45)) (?v_127 (not P39)) (?v_19 (not ?v_111)) (?v_161 (not P30)) (?v_41 (not ?v_2)) (?v_9 (not ?v_58)) (?v_67 (not ?v_13)) (?v_85 (not P22)) (?v_27 (not ?v_162)) (?v_16 (not ?v_14)) (?v_150 (not ?v_36)) (?v_68 (not ?v_18)) (?v_11 (not P17)) (?v_39 (not ?v_95)) (?v_57 (not ?v_32)) (?v_73 (not P26)) (?v_81 (not ?v_35)) (?v_90 (not ?v_186)) (?v_123 (not P31)) (?v_148 (not ?v_62)) (?v_96 (not P19)) (?v_59 (not P25)) (?v_159 (not P16)) (?v_91 (not ?v_146)) (?v_78 (not ?v_20)) (?v_172 (not ?v_21)) (?v_154 (not ?v_49)) (?v_31 (not P3)) (?v_180 (not ?v_92)) (?v_52 (not P14)) (?v_84 (not P29)) (?v_69 (not ?v_74)) (?v_115 (not P36)) (?v_197 (not P6)) (?v_118 (not P38)) (?v_163 (not P13)) (?v_61 (not ?v_37)) (?v_43 (not P18)) (?v_65 (not ?v_204)) (?v_80 (not P27)) (?v_53 (not ?v_26)) (?v_101 (not ?v_46)) (?v_110 (not ?v_79)) (?v_83 (not ?v_47)) (?v_156 (not ?v_50)) (?v_176 (not P2)) (?v_183 (not ?v_54)) (?v_153 (not ?v_119)) (?v_135 (not ?v_56)) (?v_76 (not ?v_60)) (?v_89 (not ?v_63)) (?v_126 (not P7)) (?v_165 (not ?v_149)) (?v_116 (not ?v_51)) (?v_143 (not ?v_121)) (?v_132 (not P15)) (?v_167 (not ?v_4)) (?v_94 (not ?v_77)) (?v_160 (not ?v_22)) (?v_151 (not P12)) (?v_136 (not ?v_128)) (?v_104 (not ?v_87)) (?v_130 (not ?v_105)) (?v_109 (not ?v_198)) (?v_174 (not ?v_30)) (?v_114 (not ?v_24)) (?v_141 (not ?v_122)) (?v_125 (not P10)) (?v_187 (not P9)) (?v_108 (not ?v_102)) (?v_205 (not P11)) (?v_140 (not P34)) (?v_158 (not P37)) (?v_175 (not P24)) (?v_131 (not P32)) (?v_185 (not ?v_107)) (?v_179 (not ?v_129)) (?v_152 (not P4)) (?v_166 (not P5)) (?v_145 (not ?v_134)) (?v_171 (not P35)) (?v_181 (not P8)) (?v_182 (not P21)) (?v_189 (not ?v_164)) (?v_177 (not P33)) (?v_184 (not ?v_33)) (?v_200 (not P28)) (?v_203 (not ?v_55)) (?v_193 (not P23)) (?v_202 (not P20)) (?v_201 (not P0)) (?v_48 (<= (+ (* 48 x20) (* 35 x1) (* 23 x21)) 20)) (?v_99 (distinct (- (+ (* 57 x16) x28) (* 43 x10)) 16)) (?v_138 (< (+ (* 2 x20) (* 57 x17) (* 32 x16)) 42)) (?v_190 (< (+ (* 46 x10) (* 49 x30) (* 6 x29)) 16))) (let ((?v_137 (not ?v_190)) (?v_192 (not ?v_48)) (?v_194 (not ?v_99)) (?v_206 (not ?v_138)) (?v_1 (distinct (+ (* (- 30) x36) ?v_0 ?v_0) (- 26)))) (let ((?v_8 (not ?v_1)) (?v_29 (< (- (* 39 x8) (* 11 x12)) (- 32)))) (let ((?v_17 (not ?v_29)) (?v_15 (< (- (- (* (- 7) x24) (* 10 x11)) (* 48 x39)) (- 42))) (?v_66 (= (- (- (* (- 57) x17) (* 54 x4)) (* 55 x25)) 59))) (let ((?v_28 (not ?v_66)) (?v_23 (distinct (- (- (* 7 x4) (* 4 x7)) (* 30 x21)) (- 31)))) (let ((?v_5 (not ?v_23)) (?v_7 (< (+ (- (* (- 3) x27) (* 3 x5)) (* 23 x25)) 44))) (let ((?v_75 (not ?v_7)) (?v_34 (< (- (+ (* 42 x31) (* 57 x20)) (* 47 x6)) (- 19))) (?v_42 (<= (+ (- (* 35 x27) (* 51 x34)) ?v_12) (- 56))) (?v_72 (<= (- (- (* (- 51) x36) (* 21 x1)) x17) 41)) (?v_71 (< (- (+ (* (- 32) x33) (* 52 x27)) 0) (- 11)))) (let ((?v_112 (not ?v_34)) (?v_44 (= (+ (* (- 27) x24) (* 15 x16) (* 27 x18)) 47)) (?v_124 (< (+ (* (- 31) x21) (* 41 x17) (* 37 x10)) 4))) (let ((?v_98 (not ?v_124)) (?v_64 (= (+ (* (- 25) x6) (* 41 x1) (* 19 x39)) (- 21))) (?v_191 (< (+ (* (- 18) x16) (* 45 x1) (* 23 x16)) 7)) (?v_86 (not ?v_44)) (?v_70 (distinct (- (+ (* 44 x16) (* 25 x20)) (* 25 x28)) (- 28)))) (let ((?v_139 (not ?v_70)) (?v_103 (< (+ (* (- 28) x32) (* 36 x15) (* 42 x16)) (- 28))) (?v_178 (not ?v_64)) (?v_82 (<= (- (- (* (- 44) x12) (* 32 x27)) (* 16 x28)) (- 49))) (?v_142 (<= (+ (- (* (- 57) x6) (* 52 x26)) (* 33 x1)) 2)) (?v_88 (not ?v_71)) (?v_113 (not ?v_72)) (?v_188 (<= (+ (- (* (- 38) x11) (* 44 x18)) (* 41 x28)) 49))) (let ((?v_93 (not ?v_188)) (?v_147 (not ?v_82)) (?v_133 (< (- (- (* (- 23) x36) (* 26 x28)) (* 24 x32)) 14)) (?v_97 (< (- (- x26 (* 34 x19)) ?v_100) (- 36))) (?v_120 (<= (+ (- (* 21 x32) (* 30 x10)) (* 34 x26)) (- 49))) (?v_106 (< (- (+ (* 27 x20) (* 8 x3)) (* 4 x20)) (- 25)))) (let ((?v_117 (not ?v_106)) (?v_157 (not ?v_120)) (?v_170 (not ?v_97)) (?v_168 (not ?v_133)) (?v_195 (or ?v_5 P7)) (?v_169 (not ?v_42)) (?v_173 (not ?v_142)) (?v_196 (not ?v_191)) (?v_199 (not ?v_103))) (and (and (and (and (and (and (and (and (and (and (and (and (and (and (and (and (and (and (and (and (and (and (and (and (and (and (and (and (and (and (and (and (and (and (and (and (and (and (and (and (and (and (and (and (and (and (and (and (and (and (and (and (and (and (and (and (and (and (and (and (and (and (and (and (and (and (and (and (and (and (and (and (and (and (and (and (and (and (and (and (and (and (and (and (and (and (and (and (and (and (and (and (and (and (and (and (and (and (and (and (and (and (and (and (and (and (and (and (and (and (and (and (and (and (and (and (and (and (and (and (and (and (and (and (and (and (and (and (and (and (and (and (and (and (and (and (and (and (and (and (and (and (and (and (and (and (and (and (and (and (and (and (and (and (and (and (and (and (and (and (and (and (and (and (and (and (and (and (and (and (and (and (and (and (and (and (and (and (and (and (and (and (and (and (and (and (and (and (and (and (and (and (and (and (and (and (and (and (and (and (and (and (and (and (and (and (and (and (and (and (and (and (and (and (and (and (and (and (and (and (and (and (and (and (and (and (and (and (and (and (and (and (and (and (and (and (and (and (and (and (and (and (and (and (and (and (and (and (and (and (and (and (and (and (and (and (and (and (and (and (and (and (and (and (and (and (and (and (and (and (and (and (and (and (and (and (and (and (and (and (and (and (and (and (and (and (and (and (and (and (and (and (and (and (and (and (and (and (and (and (and (and (and (and (and (and (and (and (and (and (and (and (and (and (and (and (and (and (and (and (and (and (and (and (and (and (and (and (and (and (and (and (and (and (and (and (and (and (and (and (and (and (and (and (and (and (and (and (and (and (and (and (and (and (and (and (and (and (and (and (and (and (and (and (and (and (and (and (and (and (and (and (and (and (and (and (and (and (and (and (and (and (and (and (and (and (and (and (and (and (and (and (and (and (and (and (and (and (and (and (and (and (and (and (and (and (and (and (and (and (and (and (and (and (and (and (and (and (and (and (and (and (and (and (and (and (and (and (and (and (and (and (and (and (and (and (and (and (and (and (and (and (and (and (and (and (and (and (and (and (and (and (and (and (and (and (and (and (and (and (and (and (and (and (and (and (and (and (and (and (and (and (and (and (and (and (and (and (and (or (or ?v_144 ?v_4) ?v_8) (or (or P15 ?v_2) ?v_155)) (or (or ?v_25 ?v_1) ?v_127)) (or (or ?v_48 ?v_56) P38)) (or (or ?v_19 P3) ?v_161)) (or (or P30 ?v_21) P33)) (or (or P22 ?v_41) ?v_55)) (or (or ?v_77 ?v_33) ?v_63)) (or (or ?v_9 ?v_67) ?v_20)) (or (or ?v_85 ?v_27) ?v_16)) (or (or ?v_17 ?v_15) ?v_150)) (or (or ?v_4 ?v_28) ?v_5)) (or (or ?v_68 ?v_11) P14)) (or (or ?v_5 ?v_50) ?v_7)) (or (or P7 ?v_26) ?v_4)) (or (or ?v_37 ?v_75) P29)) (or (or ?v_8 ?v_34) ?v_39)) (or (or ?v_9 ?v_57) ?v_11)) (or (or ?v_30 ?v_73) P33)) (or (or ?v_81 ?v_90) ?v_42)) (or (or ?v_13 ?v_123) ?v_14)) (or (or ?v_24 ?v_15) ?v_72)) (or (or ?v_11 ?v_16) ?v_148)) (or (or ?v_46 ?v_17) P23)) (or (or P27 ?v_96) ?v_59)) (or (or ?v_54 ?v_87) ?v_159)) (or (or ?v_22 ?v_18) ?v_91)) (or (or P20 P35) ?v_19)) (or (or ?v_78 ?v_172) ?v_22)) (or (or ?v_23 P21) ?v_154)) (or (or ?v_71 ?v_24) P12)) (or (or ?v_31 ?v_180) ?v_52)) (or (or ?v_84 ?v_69) ?v_60)) (or (or ?v_115 ?v_25) ?v_26)) (or (or ?v_197 ?v_27) ?v_15)) (or (or ?v_118 ?v_28) ?v_29)) (or (or ?v_30 ?v_31) P25)) (or (or ?v_163 ?v_32) ?v_33)) (or (or ?v_112 ?v_35) ?v_36)) (or (or ?v_61 ?v_44) ?v_43)) (or (or ?v_65 ?v_98) ?v_24)) (or (or ?v_80 P30) ?v_39)) (or (or ?v_64 ?v_40) ?v_41)) (or (or ?v_47 P22) ?v_17)) (or (or ?v_191 ?v_39) ?v_42)) (or (or ?v_36 ?v_107) ?v_53)) (or (or ?v_43 ?v_86) ?v_45)) (or (or ?v_51 ?v_101) ?v_110)) (or (or P22 P1) ?v_164)) (or (or ?v_83 ?v_48) ?v_49)) (or (or ?v_44 ?v_139) ?v_156)) (or (or P20 ?v_51) ?v_99)) (or (or P10 ?v_103) ?v_11)) (or (or P28 ?v_42) P34)) (or (or ?v_52 ?v_176) ?v_23)) (or (or ?v_53 ?v_183) ?v_41)) (or (or ?v_55 ?v_153) ?v_135)) (or (or ?v_57 ?v_58) ?v_59)) (or (or P31 P23) P12)) (or (or P7 ?v_76) ?v_61)) (or (or ?v_102 ?v_62) ?v_89)) (or (or ?v_18 P25) ?v_178)) (or (or ?v_82 P39) ?v_31)) (or (or ?v_30 P31) ?v_49)) (or (or ?v_65 ?v_66) ?v_9)) (or (or P22 ?v_142) P31)) (or (or P33 ?v_67) ?v_5)) (or (or ?v_68 ?v_69) ?v_70)) (or (or ?v_126 ?v_165) ?v_4)) (or (or ?v_116 P32) ?v_18)) (or (or P26 P30) ?v_88)) (or (or ?v_113 P38) ?v_73)) (or (or ?v_19 P34) ?v_74)) (or (or ?v_143 ?v_9) ?v_75)) (or (or ?v_76 ?v_132) ?v_167)) (or (or P36 ?v_16) ?v_17)) (or (or ?v_94 P15) ?v_160)) (or (or P14 ?v_46) P32)) (or (or ?v_45 ?v_4) ?v_78)) (or (or ?v_151 ?v_79) ?v_80)) (or (or ?v_81 ?v_136) ?v_93)) (or (or P23 ?v_147) ?v_83)) (or (or ?v_84 ?v_133) ?v_85)) (or (or ?v_80 ?v_86) ?v_59)) (or (or ?v_104 ?v_43) P6)) (or (or ?v_67 ?v_138) ?v_88)) (or (or ?v_76 ?v_87) ?v_89)) (or (or ?v_130 ?v_60) ?v_36)) (or (or P25 ?v_97) P6)) (or (or P1 ?v_90) ?v_60)) (or (or ?v_91 ?v_92) ?v_109)) (or (or P11 ?v_33) P28)) (or (or ?v_93 ?v_93) ?v_80)) (or (or ?v_120 ?v_11) ?v_86)) (or (or P34 ?v_94) ?v_32)) (or (or ?v_95 ?v_5) P24)) (or (or ?v_174 ?v_36) ?v_60)) (or (or ?v_129 ?v_114) ?v_96)) (or (or ?v_97 P4) P39)) (or (or ?v_92 ?v_117) ?v_11)) (or (or P31 ?v_98) ?v_49)) (or (or ?v_40 ?v_137) ?v_95)) (or (or ?v_99 ?v_141) ?v_54)) (or (or ?v_65 ?v_101) ?v_125)) (or (or ?v_88 ?v_187) ?v_108)) (or (or ?v_103 ?v_104) ?v_17)) (or (or ?v_134 ?v_105) P3)) (or (or ?v_47 ?v_58) ?v_29)) (or (or ?v_106 ?v_94) ?v_107)) (or (or ?v_205 ?v_108) ?v_88)) (or (or ?v_109 P14) P11)) (or (or ?v_110 ?v_111) ?v_5)) (or (or ?v_112 P26) ?v_140)) (or (or ?v_11 ?v_113) ?v_74)) (or (or ?v_74 ?v_13) ?v_114)) (or (or ?v_115 ?v_116) P11)) (or (or ?v_2 ?v_52) P31)) (or (or ?v_117 ?v_192) ?v_19)) (or (or ?v_80 ?v_118) ?v_119)) (or (or P12 ?v_30) ?v_82)) (or (or P11 P10) ?v_103)) (or (or ?v_107 P20) ?v_88)) (or (or ?v_120 ?v_31) ?v_121)) (or (or ?v_157 ?v_122) P2)) (or (or ?v_123 ?v_124) ?v_54)) (or (or ?v_158 ?v_175) ?v_61)) (or (or ?v_61 P28) ?v_125)) (or (or ?v_39 ?v_63) ?v_98)) (or (or ?v_131 ?v_126) ?v_24)) (or (or ?v_49 ?v_73) ?v_112)) (or (or ?v_59 ?v_104) ?v_185)) (or (or ?v_35 P38) ?v_127)) (or (or ?v_170 ?v_128) ?v_52)) (or (or ?v_53 ?v_48) ?v_179)) (or (or ?v_51 ?v_120) ?v_152)) (or (or ?v_31 ?v_127) ?v_107)) (or (or ?v_130 P14) ?v_5)) (or (or ?v_46 ?v_4) ?v_130)) (or (or ?v_131 ?v_166) ?v_132)) (or (or ?v_129 ?v_104) ?v_124)) (or (or ?v_113 ?v_29) ?v_74)) (or (or ?v_57 ?v_133) P12)) (or (or ?v_1 ?v_145) ?v_135)) (or (or P4 ?v_62) ?v_126)) (or (or P6 ?v_25) ?v_48)) (or (or ?v_8 ?v_62) ?v_108)) (or (or ?v_9 ?v_11) ?v_136)) (or (or ?v_83 ?v_171) ?v_137)) (or (or ?v_59 ?v_138) P0)) (or (or ?v_119 ?v_137) P13)) (or (or P8 ?v_139) ?v_140)) (or (or ?v_8 ?v_4) ?v_34)) (or (or P5 P12) P13)) (or (or ?v_62 ?v_168) ?v_33)) (or (or ?v_103 ?v_95) ?v_41)) (or (or ?v_141 ?v_98) ?v_54)) (or (or ?v_142 ?v_143) ?v_30)) (or (or ?v_28 ?v_105) ?v_134)) (or (or ?v_144 ?v_68) P35)) (or (or ?v_122 ?v_7) ?v_181)) (or (or P35 ?v_93) ?v_64)) (or (or P10 ?v_37) ?v_145)) (or (or ?v_117 P33) ?v_113)) (or (or ?v_35 ?v_146) ?v_147)) (or (or ?v_75 ?v_138) ?v_74)) (or (or P3 ?v_33) ?v_42)) (or (or P37 ?v_46) ?v_148)) (or (or P4 P2) ?v_61)) (or (or P25 ?v_149) ?v_150)) (or (or ?v_56 ?v_90) ?v_15)) (or ?v_195 ?v_22)) (or (or P2 ?v_151) ?v_83)) (or (or ?v_152 ?v_87) ?v_140)) (or (or ?v_27 ?v_153) ?v_128)) (or (or P38 ?v_169) ?v_154)) (or (or ?v_108 ?v_155) ?v_63)) (or (or ?v_47 ?v_89) ?v_143)) (or (or P11 ?v_156) ?v_150)) (or (or ?v_157 ?v_24) ?v_154)) (or (or ?v_18 ?v_155) ?v_76)) (or (or ?v_141 P14) ?v_74)) (or (or ?v_74 ?v_22) P0)) (or (or ?v_111 ?v_128) ?v_151)) (or (or P7 ?v_96) ?v_11)) (or (or P36 P2) ?v_158)) (or (or ?v_20 ?v_55) ?v_103)) (or (or ?v_106 ?v_159) ?v_116)) (or (or ?v_92 ?v_118) ?v_27)) (or (or ?v_182 ?v_7) ?v_27)) (or (or P20 ?v_135) ?v_160)) (or (or ?v_102 ?v_161) P0)) (or (or ?v_173 ?v_79) ?v_157)) (or (or ?v_22 ?v_162) ?v_163)) (or (or ?v_78 ?v_74) ?v_189)) (or (or ?v_177 ?v_141) ?v_18)) (or (or ?v_56 ?v_18) ?v_165)) (or (or P10 ?v_194) ?v_154)) (or (or ?v_109 ?v_184) ?v_50)) (or (or ?v_166 ?v_200) P15)) (or (or P21 ?v_118) ?v_64)) (or (or P19 ?v_150) P11)) (or (or ?v_152 P22) P15)) (or (or ?v_167 ?v_68) ?v_122)) (or (or ?v_124 ?v_161) ?v_93)) (or (or ?v_157 ?v_85) ?v_99)) (or (or ?v_95 P36) ?v_15)) (or (or ?v_41 ?v_114) ?v_19)) (or (or ?v_134 ?v_168) ?v_169)) (or (or ?v_170 (not ?v_15)) ?v_111)) (or (or ?v_62 ?v_84) ?v_37)) (or (or ?v_141 P16) ?v_21)) (or (or ?v_13 ?v_171) ?v_172)) (or (or ?v_109 ?v_173) ?v_141)) (or (or ?v_166 P26) ?v_114)) (or (or ?v_98 ?v_99) ?v_30)) (or (or ?v_161 ?v_135) P20)) (or (or ?v_60 ?v_174) ?v_5)) (or (or ?v_91 ?v_90) P10)) (or (or P33 ?v_56) ?v_23)) (or (or ?v_41 ?v_141) ?v_28)) (or (or ?v_175 ?v_71) ?v_176)) (or (or P7 ?v_8) ?v_45)) (or (or ?v_89 ?v_5) ?v_81)) (or (or ?v_56 ?v_77) ?v_103)) (or (or P2 ?v_162) ?v_174)) (or (or ?v_22 ?v_203) ?v_8)) (or (or ?v_23 ?v_120) ?v_193)) (or (or ?v_91 ?v_86) ?v_112)) (or (or ?v_133 P37) ?v_177)) (or (or ?v_146 ?v_52) P1)) (or (or ?v_167 ?v_96) ?v_69)) (or (or ?v_21 ?v_104) ?v_144)) (or (or ?v_129 ?v_69) ?v_136)) (or (or ?v_131 ?v_107) ?v_116)) (or (or ?v_50 ?v_178) ?v_52)) (or (or ?v_76 ?v_127) ?v_79)) (or (or ?v_149 ?v_108) ?v_112)) (or (or ?v_133 ?v_161) ?v_64)) (or (or ?v_165 ?v_66) ?v_179)) (or (or ?v_202 ?v_58) P28)) (or (or ?v_75 ?v_56) ?v_148)) (or (or ?v_150 P16) ?v_175)) (or (or P7 ?v_68) ?v_180)) (or (or ?v_33 ?v_177) ?v_148)) (or (or ?v_181 ?v_49) ?v_182)) (or (or P29 ?v_173) ?v_183)) (or (or ?v_89 ?v_90) ?v_127)) (or (or ?v_122 ?v_27) ?v_68)) (or (or ?v_184 ?v_14) P33)) (or (or ?v_185 ?v_87) ?v_56)) (or (or ?v_53 ?v_43) ?v_7)) (or (or ?v_51 ?v_154) ?v_78)) (or (or ?v_17 P22) ?v_179)) (or (or ?v_11 ?v_141) ?v_18)) (or (or ?v_108 ?v_122) ?v_148)) (or (or ?v_116 ?v_7) ?v_15)) (or (or ?v_186 ?v_115) ?v_97)) (or (or ?v_123 ?v_107) ?v_93)) (or (or ?v_99 ?v_42) ?v_17)) (or (or ?v_17 P3) ?v_30)) (or (or ?v_43 ?v_152) ?v_52)) (or (or ?v_206 ?v_167) ?v_31)) (or (or P16 ?v_174) ?v_120)) (or (or P8 ?v_187) ?v_167)) (or (or ?v_39 ?v_145) ?v_137)) (or (or ?v_64 ?v_26) ?v_47)) (or (or ?v_66 P17) ?v_102)) (or (or ?v_87 ?v_179) ?v_181)) (or (or ?v_139 P11) ?v_98)) (or (or ?v_34 ?v_85) ?v_49)) (or (or ?v_101 ?v_74) ?v_72)) (or (or P3 ?v_164) P15)) (or (or ?v_20 ?v_30) ?v_54)) (or (or ?v_188 ?v_189) ?v_183)) (or (or ?v_63 ?v_182) ?v_160)) (or (or P35 ?v_190) ?v_130)) (or (or P4 ?v_117) ?v_97)) (or (or ?v_160 P35) ?v_82)) (or (or ?v_46 ?v_80) ?v_122)) (or (or ?v_133 ?v_137) ?v_50)) (or (or ?v_76 P22) ?v_163)) (or (or ?v_168 ?v_170) ?v_196)) (or (or ?v_23 P6) ?v_199)) (or (or ?v_48 ?v_40) ?v_94)) (or (or ?v_184 ?v_25) P11)) (or (or ?v_164 ?v_81) ?v_73)) (or (or P14 ?v_170) ?v_124)) (or (or P14 ?v_165) ?v_51)) (or (or P38 P39) ?v_7)) (or (or ?v_60 ?v_126) ?v_111)) (or (or ?v_92 ?v_192) ?v_155)) (or (or ?v_11 ?v_58) ?v_33)) (or (or ?v_13 ?v_155) ?v_134)) (or (or ?v_22 ?v_183) ?v_109)) (or (or ?v_27 P2) ?v_180)) (or (or ?v_80 ?v_45) ?v_11)) (or (or ?v_60 ?v_49) ?v_170)) (or (or P5 ?v_193) P4)) (or (or ?v_58 ?v_157) ?v_161)) (or (or ?v_93 ?v_160) ?v_91)) (or (or ?v_69 ?v_106) ?v_122)) (or (or P15 ?v_7) ?v_94)) (or (or ?v_33 ?v_71) ?v_76)) (or (or ?v_76 P32) ?v_59)) (or (or ?v_125 P35) ?v_44)) (or (or ?v_42 ?v_83) ?v_94)) (or (or ?v_107 P24) ?v_61)) (or (or ?v_7 ?v_42) P20)) (or (or ?v_105 ?v_2) ?v_109)) (or (or ?v_109 ?v_41) ?v_17)) (or (or P15 ?v_71) ?v_133)) (or (or ?v_128 ?v_80) ?v_67)) (or (or ?v_13 ?v_51) ?v_14)) (or (or P25 P31) ?v_143)) (or (or ?v_48 ?v_165) ?v_18)) (or (or ?v_126 ?v_169) ?v_189)) (or (or ?v_4 ?v_139) ?v_146)) (or (or ?v_69 P38) ?v_194)) (or (or ?v_177 ?v_98) P36)) (or (or ?v_108 ?v_76) ?v_88)) (or (or ?v_61 ?v_70) ?v_51)) (or (or ?v_146 ?v_74) ?v_49)) (or (or ?v_161 ?v_182) ?v_56)) (or (or ?v_130 P2) ?v_47)) (or (or ?v_153 ?v_52) P24)) (or (or ?v_184 ?v_143) ?v_58)) (or (or ?v_37 ?v_30) ?v_118)) (or ?v_195 ?v_110)) (or (or P32 ?v_109) P14)) (or (or ?v_138 ?v_144) ?v_128)) (or (or P25 ?v_183) ?v_124)) (or (or ?v_19 ?v_140) ?v_16)) (or (or ?v_140 ?v_20) ?v_135)) (or (or ?v_98 ?v_174) ?v_36)) (or (or ?v_95 ?v_196) ?v_189)) (or (or ?v_74 ?v_50) ?v_197)) (or (or ?v_126 ?v_123) ?v_201)) (or (or ?v_110 ?v_39) ?v_135)) (or (or ?v_182 ?v_198) ?v_137)) (or (or ?v_90 ?v_42) ?v_149)) (or (or ?v_13 P16) ?v_86)) (or (or ?v_124 ?v_76) ?v_170)) (or (or ?v_199 ?v_45) ?v_171)) (or (or P26 P37) ?v_104)) (or (or ?v_130 P22) P21)) (or (or ?v_143 ?v_191) P19)) (or (or ?v_131 ?v_200) P37)) (or (or ?v_1 ?v_191) ?v_177)) (or (or ?v_173 ?v_90) ?v_152)) (or (or ?v_35 ?v_64) ?v_112)) (or (or ?v_119 P34) ?v_183)) (or (or ?v_190 ?v_149) P14)) (or (or ?v_197 ?v_24) ?v_201)) (or (or ?v_169 ?v_32) ?v_15)) (or (or ?v_57 ?v_17) ?v_128)) (or (or ?v_202 ?v_9) ?v_105)) (or (or ?v_25 ?v_203) ?v_204)) (or (or ?v_133 ?v_157) ?v_178)) (or (or ?v_114 ?v_36) ?v_13)) (or (or ?v_106 P4) ?v_79)) (or (or ?v_138 ?v_118) ?v_58)) (or (or ?v_54 ?v_98) ?v_95)) (or (or ?v_33 ?v_119) ?v_125)) (or (or ?v_137 ?v_182) ?v_108)) (or (or ?v_24 ?v_186) ?v_112)) (or (or ?v_86 ?v_137) ?v_104)) (or (or ?v_167 ?v_172) ?v_204)) (or (or ?v_51 ?v_183) ?v_20)) (or (or ?v_59 ?v_142) ?v_203)) (or (or ?v_118 ?v_74) ?v_4)) (or (or P21 P34) P27)) (or (or ?v_172 P33) ?v_44)) (or (or P18 ?v_27) ?v_70)) (or (or ?v_135 ?v_35) ?v_167)) (or (or ?v_79 ?v_143) ?v_66)) (or (or ?v_78 ?v_81) ?v_99)) (or (or ?v_69 ?v_186) ?v_188)) (or (or ?v_36 ?v_70) ?v_63)) (or (or ?v_101 ?v_106) ?v_34)) (or (or P9 ?v_175) ?v_73)) (or (or ?v_132 P22) ?v_112)) (or (or ?v_119 ?v_101) ?v_87)) (or (or ?v_104 ?v_93) ?v_205)) (or (or ?v_138 ?v_111) P9)) (or (or ?v_30 ?v_99) ?v_85)) (or (or ?v_203 P6) ?v_57)) (or (or ?v_23 ?v_153) ?v_43)) (or (or ?v_71 ?v_33) ?v_199)) (or (or ?v_88 ?v_198) ?v_135)) (or (or ?v_97 ?v_202) ?v_17)) (or (or ?v_152 P8) P38)) (or (or ?v_99 ?v_205) ?v_86)) (or (or ?v_115 ?v_160) ?v_173)) (or (or ?v_196 ?v_30) ?v_133)) (or (or ?v_203 P30) ?v_77)) (or (or ?v_114 ?v_139) ?v_80)) (or (or P28 ?v_156) ?v_9)) (or (or ?v_82 P36) ?v_59)) (or (or ?v_135 ?v_135) ?v_147)) (or (or ?v_204 ?v_26) P35)) (or (or ?v_62 ?v_83) ?v_102)) (or (or ?v_120 ?v_155) ?v_94)) (or (or ?v_25 ?v_117) ?v_94)) (or (or P38 P33) ?v_182)) (or (or ?v_176 ?v_84) ?v_51)) (or (or ?v_132 ?v_133) P37)) (or (or ?v_44 ?v_94) ?v_65)) (or (or ?v_188 ?v_56) P13)) (or (or ?v_104 ?v_9) ?v_32)) (or (or P2 ?v_153) ?v_188)) (or (or ?v_130 ?v_118) ?v_40)) (or (or ?v_130 ?v_187) ?v_34)) (or (or ?v_138 P34) ?v_66)) (or (or ?v_34 ?v_170) ?v_70)) (or (or ?v_189 ?v_124) P24)) (or (or ?v_87 ?v_137) ?v_30)) (or (or ?v_106 ?v_160) ?v_163)) (or (or ?v_183 ?v_176) ?v_61)) (or (or ?v_108 ?v_185) P1)) (or (or ?v_158 ?v_163) ?v_109)) (or (or ?v_5 ?v_22) ?v_112)) (or (or ?v_161 P10) P5)) (or (or ?v_107 ?v_64) ?v_29)) (or (or P27 ?v_191) ?v_129)) (or (or ?v_131 ?v_177) ?v_191)) (or (or ?v_39 ?v_128) ?v_174)) (or (or ?v_146 ?v_173) ?v_57)) (or (or P37 ?v_2) ?v_34)) (or (or P38 ?v_26) ?v_149)) (or (or ?v_165 ?v_95) ?v_5)) (or (or ?v_25 ?v_157) ?v_143)) (or (or ?v_5 ?v_203) ?v_26)) (or (or ?v_69 ?v_102) ?v_17)) (or (or ?v_76 ?v_22) ?v_154)) (or (or ?v_87 P16) ?v_144)) (or (or ?v_21 P21) ?v_86)) (or (or ?v_35 ?v_107) ?v_167)) (or (or ?v_197 P22) ?v_56)) (or (or ?v_183 ?v_36) ?v_164)) (or (or ?v_186 ?v_109) ?v_113)) (or (or ?v_21 ?v_83) ?v_152)) (or (or ?v_2 ?v_175) ?v_102)) (or (or ?v_206 P39) ?v_201)) (or (or P3 ?v_54) ?v_18)) (or (or ?v_156 ?v_147) ?v_52)) (or (or ?v_118 ?v_174) ?v_26)) (or (or ?v_23 ?v_1) ?v_200)) (or (or ?v_163 ?v_20) ?v_176)) (or (or ?v_80 ?v_28) P37)) (or (or ?v_128 ?v_176) ?v_111)) (or (or P32 ?v_123) ?v_188)) (or (or ?v_178 P32) ?v_114)) (or (or ?v_156 ?v_21) ?v_81)) (or (or ?v_162 ?v_206) ?v_56)) (or (or ?v_129 P7) ?v_182)) (or (or ?v_117 ?v_102) P17)) (or (or ?v_41 ?v_94) ?v_194)) (or (or P14 ?v_171) ?v_198)) (or (or ?v_47 ?v_180) ?v_125)) (or (or ?v_94 ?v_172) ?v_88)) (or (or ?v_29 ?v_97) ?v_75)) (or (or ?v_67 ?v_31) ?v_18)) (or (or ?v_25 ?v_11) ?v_203)) (or (or ?v_2 ?v_110) ?v_50)) (or (or ?v_123 ?v_104) ?v_43)) (or (or ?v_190 P5) ?v_126)) (or (or ?v_23 ?v_202) ?v_200)) (or (or P0 ?v_96) ?v_73)) (or (or ?v_129 ?v_154) ?v_160)) (or (or P1 ?v_178) ?v_69)) (or (or ?v_142 ?v_112) ?v_184)) (or (or ?v_8 ?v_63) ?v_178)) (or (or ?v_76 ?v_139) P19)) (or (or P26 P8) ?v_37)) (or (or ?v_89 ?v_68) ?v_204)) (or (or ?v_121 ?v_91) ?v_15)) (or (or ?v_205 ?v_44) ?v_199)) (or (or ?v_171 ?v_161) ?v_94)) (or (or ?v_128 P25) ?v_89)) (or (or ?v_28 ?v_140) ?v_152))))))))))))))))))))))
(check-sat)
(exit)
